MATILDA_Graphs/g0047.col
c File: data_files/evolved_graphs/g0047.col
c
c Auto generated graph
c
p edge 100 2179
e 1 2
e 1 5
e 1 6
e 1 7
e 1 8
e 1 9
e 1 11
e 1 12
e 1 13
e 1 14
e 1 15
e 1 16
e 1 18
e 1 19
e 1 20
e 1 21
e 1 22
e 1 23
e 1 24
e 1 25
e 1 26
e 1 28
e 1 29
e 1 30
e 1 31
e 1 32
e 1 33
e 1 34
e 1 35
e 1 36
e 1 39
e 1 40
e 1 41
e 1 42
e 1 43
e 1 44
e 1 45
e 1 48
e 1 50
e 1 52
e 1 53
e 1 56
e 1 66
e 1 78
e 1 79
e 1 82
e 1 86
e 1 92
e 1 98
e 1 100
e 2 3
e 2 5
e 2 7
e 2 8
e 2 10
e 2 12
e 2 14
e 2 15
e 2 16
e 2 17
e 2 18
e 2 19
e 2 20
e 2 21
e 2 22
e 2 23
e 2 26
e 2 27
e 2 28
e 2 29
e 2 31
e 2 33
e 2 34
e 2 35
e 2 36
e 2 37
e 2 38
e 2 39
e 2 40
e 2 42
e 2 43
e 2 44
e 2 45
e 2 46
e 2 47
e 2 48
e 2 49
e 2 50
e 2 52
e 2 53
e 2 61
e 2 68
e 2 70
e 2 80
e 2 88
e 2 94
e 2 100
e 3 4
e 3 5
e 3 7
e 3 8
e 3 9
e 3 10
e 3 11
e 3 12
e 3 15
e 3 17
e 3 18
e 3 19
e 3 20
e 3 22
e 3 23
e 3 24
e 3 25
e 3 26
e 3 27
e 3 29
e 3 30
e 3 34
e 3 35
e 3 36
e 3 39
e 3 40
e 3 43
e 3 44
e 3 45
e 3 47
e 3 51
e 3 52
e 3 53
e 3 54
e 3 56
e 3 61
e 3 67
e 3 74
e 3 79
e 3 83
e 3 85
e 3 90
e 3 92
e 3 94
e 4 5
e 4 11
e 4 13
e 4 14
e 4 15
e 4 16
e 4 18
e 4 20
e 4 22
e 4 23
e 4 24
e 4 25
e 4 26
e 4 28
e 4 29
e 4 30
e 4 31
e 4 32
e 4 33
e 4 35
e 4 36
e 4 37
e 4 39
e 4 42
e 4 43
e 4 44
e 4 46
e 4 48
e 4 52
e 4 57
e 4 60
e 4 63
e 4 71
e 4 75
e 4 76
e 4 82
e 5 7
e 5 9
e 5 10
e 5 11
e 5 14
e 5 18
e 5 19
e 5 21
e 5 22
e 5 23
e 5 24
e 5 26
e 5 27
e 5 28
e 5 29
e 5 30
e 5 32
e 5 34
e 5 35
e 5 37
e 5 38
e 5 39
e 5 40
e 5 43
e 5 44
e 5 45
e 5 47
e 5 48
e 5 49
e 5 51
e 5 52
e 5 53
e 5 64
e 5 69
e 5 70
e 5 74
e 5 81
e 5 83
e 5 84
e 5 87
e 5 94
e 5 98
e 6 8
e 6 9
e 6 10
e 6 11
e 6 13
e 6 14
e 6 15
e 6 16
e 6 17
e 6 18
e 6 19
e 6 20
e 6 22
e 6 23
e 6 24
e 6 25
e 6 26
e 6 27
e 6 29
e 6 30
e 6 31
e 6 32
e 6 33
e 6 34
e 6 36
e 6 37
e 6 38
e 6 39
e 6 40
e 6 41
e 6 42
e 6 43
e 6 44
e 6 45
e 6 46
e 6 48
e 6 49
e 6 50
e 6 52
e 6 56
e 6 60
e 6 61
e 6 66
e 6 79
e 6 84
e 6 85
e 6 93
e 6 95
e 6 97
e 6 98
e 6 100
e 7 8
e 7 9
e 7 10
e 7 11
e 7 12
e 7 14
e 7 15
e 7 17
e 7 19
e 7 22
e 7 23
e 7 24
e 7 25
e 7 27
e 7 28
e 7 29
e 7 30
e 7 31
e 7 33
e 7 35
e 7 37
e 7 38
e 7 39
e 7 40
e 7 41
e 7 42
e 7 44
e 7 45
e 7 46
e 7 48
e 7 50
e 7 51
e 7 52
e 7 63
e 7 76
e 7 79
e 7 81
e 7 89
e 7 93
e 8 9
e 8 10
e 8 11
e 8 14
e 8 17
e 8 18
e 8 19
e 8 21
e 8 22
e 8 23
e 8 24
e 8 25
e 8 26
e 8 27
e 8 32
e 8 33
e 8 34
e 8 37
e 8 42
e 8 44
e 8 45
e 8 46
e 8 47
e 8 48
e 8 49
e 8 52
e 8 64
e 8 66
e 8 82
e 8 83
e 8 89
e 8 90
e 8 92
e 8 93
e 9 10
e 9 11
e 9 13
e 9 14
e 9 15
e 9 16
e 9 17
e 9 18
e 9 19
e 9 20
e 9 21
e 9 22
e 9 23
e 9 24
e 9 25
e 9 26
e 9 27
e 9 29
e 9 31
e 9 32
e 9 33
e 9 34
e 9 36
e 9 37
e 9 39
e 9 40
e 9 41
e 9 44
e 9 46
e 9 47
e 9 48
e 9 49
e 9 51
e 9 53
e 9 56
e 9 67
e 9 71
e 9 73
e 9 77
e 9 100
e 10 11
e 10 12
e 10 13
e 10 14
e 10 15
e 10 16
e 10 17
e 10 18
e 10 20
e 10 21
e 10 23
e 10 24
e 10 25
e 10 26
e 10 28
e 10 30
e 10 31
e 10 32
e 10 33
e 10 37
e 10 38
e 10 39
e 10 41
e 10 42
e 10 44
e 10 48
e 10 51
e 10 52
e 10 53
e 10 57
e 10 61
e 10 66
e 10 67
e 10 71
e 10 74
e 10 79
e 10 80
e 10 84
e 10 88
e 10 89
e 10 91
e 10 93
e 10 100
e 11 13
e 11 15
e 11 16
e 11 18
e 11 19
e 11 20
e 11 21
e 11 22
e 11 23
e 11 25
e 11 26
e 11 27
e 11 28
e 11 29
e 11 30
e 11 32
e 11 36
e 11 38
e 11 39
e 11 40
e 11 41
e 11 42
e 11 44
e 11 45
e 11 46
e 11 48
e 11 49
e 11 50
e 11 51
e 11 52
e 11 53
e 11 63
e 11 64
e 11 65
e 11 72
e 11 73
e 11 78
e 11 84
e 11 85
e 11 86
e 12 13
e 12 14
e 12 15
e 12 18
e 12 20
e 12 21
e 12 22
e 12 23
e 12 24
e 12 25
e 12 26
e 12 27
e 12 29
e 12 31
e 12 32
e 12 33
e 12 34
e 12 35
e 12 36
e 12 37
e 12 38
e 12 40
e 12 42
e 12 43
e 12 44
e 12 45
e 12 46
e 12 47
e 12 48
e 12 52
e 12 53
e 12 54
e 12 62
e 12 65
e 12 66
e 12 68
e 12 70
e 12 80
e 12 82
e 12 85
e 12 98
e 12 100
e 13 15
e 13 16
e 13 17
e 13 18
e 13 19
e 13 20
e 13 21
e 13 22
e 13 23
e 13 24
e 13 25
e 13 27
e 13 29
e 13 30
e 13 31
e 13 32
e 13 33
e 13 34
e 13 35
e 13 36
e 13 37
e 13 39
e 13 41
e 13 44
e 13 45
e 13 48
e 13 50
e 13 51
e 13 52
e 13 53
e 13 57
e 13 58
e 13 60
e 13 70
e 13 71
e 13 75
e 13 78
e 13 87
e 13 90
e 13 94
e 14 15
e 14 16
e 14 18
e 14 20
e 14 21
e 14 22
e 14 23
e 14 26
e 14 27
e 14 28
e 14 30
e 14 32
e 14 33
e 14 34
e 14 36
e 14 37
e 14 39
e 14 40
e 14 42
e 14 43
e 14 44
e 14 45
e 14 46
e 14 49
e 14 50
e 14 51
e 14 52
e 14 53
e 14 60
e 14 67
e 14 71
e 14 77
e 14 79
e 14 83
e 14 84
e 14 89
e 15 17
e 15 18
e 15 21
e 15 23
e 15 24
e 15 25
e 15 27
e 15 28
e 15 29
e 15 33
e 15 34
e 15 35
e 15 39
e 15 42
e 15 45
e 15 46
e 15 51
e 15 52
e 15 53
e 15 54
e 15 56
e 15 61
e 15 67
e 15 68
e 15 88
e 15 100
e 16 17
e 16 19
e 16 22
e 16 24
e 16 26
e 16 27
e 16 29
e 16 30
e 16 31
e 16 32
e 16 33
e 16 34
e 16 35
e 16 39
e 16 40
e 16 41
e 16 42
e 16 44
e 16 45
e 16 48
e 16 49
e 16 51
e 16 58
e 16 59
e 16 61
e 16 64
e 16 67
e 16 68
e 16 70
e 16 71
e 16 78
e 16 84
e 16 96
e 17 19
e 17 20
e 17 21
e 17 22
e 17 23
e 17 24
e 17 26
e 17 30
e 17 33
e 17 34
e 17 35
e 17 37
e 17 40
e 17 41
e 17 43
e 17 44
e 17 45
e 17 47
e 17 48
e 17 60
e 17 64
e 17 74
e 17 78
e 17 79
e 17 87
e 18 19
e 18 20
e 18 21
e 18 22
e 18 23
e 18 25
e 18 26
e 18 27
e 18 28
e 18 29
e 18 30
e 18 32
e 18 34
e 18 35
e 18 36
e 18 37
e 18 40
e 18 41
e 18 45
e 18 46
e 18 47
e 18 48
e 18 49
e 18 50
e 18 53
e 18 58
e 18 63
e 18 79
e 18 80
e 18 83
e 18 92
e 19 20
e 19 22
e 19 23
e 19 24
e 19 25
e 19 27
e 19 29
e 19 30
e 19 32
e 19 38
e 19 39
e 19 41
e 19 42
e 19 43
e 19 44
e 19 45
e 19 46
e 19 47
e 19 48
e 19 50
e 19 51
e 19 53
e 19 59
e 19 63
e 19 64
e 19 65
e 19 72
e 19 75
e 19 77
e 19 80
e 19 85
e 19 89
e 19 91
e 19 94
e 19 96
e 20 23
e 20 24
e 20 26
e 20 27
e 20 28
e 20 29
e 20 30
e 20 32
e 20 33
e 20 35
e 20 36
e 20 37
e 20 38
e 20 39
e 20 40
e 20 43
e 20 45
e 20 47
e 20 49
e 20 51
e 20 53
e 20 62
e 20 66
e 20 75
e 20 77
e 20 78
e 20 93
e 20 99
e 21 22
e 21 23
e 21 24
e 21 26
e 21 29
e 21 30
e 21 31
e 21 32
e 21 33
e 21 35
e 21 36
e 21 37
e 21 41
e 21 43
e 21 44
e 21 46
e 21 47
e 21 48
e 21 49
e 21 50
e 21 52
e 21 53
e 21 69
e 21 81
e 21 85
e 21 92
e 22 23
e 22 24
e 22 25
e 22 26
e 22 27
e 22 28
e 22 29
e 22 31
e 22 32
e 22 33
e 22 34
e 22 35
e 22 37
e 22 38
e 22 39
e 22 40
e 22 41
e 22 43
e 22 44
e 22 45
e 22 47
e 22 48
e 22 50
e 22 51
e 22 52
e 22 59
e 22 80
e 22 82
e 22 87
e 22 88
e 22 95
e 22 100
e 23 24
e 23 25
e 23 27
e 23 28
e 23 29
e 23 30
e 23 31
e 23 32
e 23 36
e 23 38
e 23 39
e 23 41
e 23 42
e 23 43
e 23 47
e 23 48
e 23 50
e 23 52
e 23 63
e 23 67
e 23 77
e 23 94
e 24 25
e 24 26
e 24 27
e 24 28
e 24 29
e 24 31
e 24 32
e 24 33
e 24 34
e 24 36
e 24 37
e 24 38
e 24 39
e 24 41
e 24 42
e 24 43
e 24 44
e 24 45
e 24 46
e 24 47
e 24 48
e 24 49
e 24 50
e 24 51
e 24 52
e 24 53
e 24 54
e 24 56
e 24 69
e 24 76
e 24 78
e 24 80
e 24 87
e 24 91
e 24 95
e 24 96
e 24 98
e 25 28
e 25 29
e 25 30
e 25 32
e 25 33
e 25 34
e 25 35
e 25 37
e 25 38
e 25 40
e 25 43
e 25 44
e 25 45
e 25 46
e 25 47
e 25 48
e 25 49
e 25 50
e 25 51
e 25 52
e 25 53
e 25 67
e 25 78
e 25 83
e 25 84
e 25 88
e 25 90
e 26 28
e 26 29
e 26 31
e 26 33
e 26 34
e 26 35
e 26 36
e 26 37
e 26 38
e 26 39
e 26 40
e 26 41
e 26 43
e 26 44
e 26 48
e 26 49
e 26 50
e 26 51
e 26 52
e 26 53
e 26 56
e 26 58
e 26 66
e 26 68
e 26 69
e 26 71
e 26 72
e 26 84
e 26 85
e 26 94
e 26 97
e 26 100
e 27 30
e 27 32
e 27 33
e 27 34
e 27 35
e 27 36
e 27 37
e 27 38
e 27 39
e 27 40
e 27 42
e 27 43
e 27 44
e 27 45
e 27 46
e 27 50
e 27 51
e 27 52
e 27 62
e 27 67
e 27 71
e 27 75
e 27 82
e 27 85
e 27 96
e 27 98
e 28 29
e 28 30
e 28 33
e 28 38
e 28 40
e 28 41
e 28 42
e 28 43
e 28 44
e 28 45
e 28 47
e 28 48
e 28 50
e 28 51
e 28 52
e 28 54
e 28 60
e 28 70
e 28 72
e 28 75
e 28 78
e 28 88
e 29 30
e 29 32
e 29 33
e 29 34
e 29 35
e 29 36
e 29 37
e 29 38
e 29 39
e 29 41
e 29 42
e 29 43
e 29 44
e 29 45
e 29 46
e 29 49
e 29 50
e 29 51
e 29 52
e 29 53
e 29 58
e 29 59
e 29 66
e 29 67
e 29 69
e 29 91
e 29 100
e 30 31
e 30 32
e 30 33
e 30 34
e 30 35
e 30 36
e 30 37
e 30 38
e 30 39
e 30 41
e 30 42
e 30 43
e 30 45
e 30 48
e 30 49
e 30 53
e 30 57
e 30 69
e 30 74
e 30 76
e 30 82
e 30 84
e 30 85
e 30 86
e 30 88
e 30 98
e 31 32
e 31 33
e 31 35
e 31 36
e 31 41
e 31 42
e 31 43
e 31 44
e 31 45
e 31 47
e 31 48
e 31 49
e 31 51
e 31 52
e 31 79
e 31 84
e 31 90
e 31 91
e 32 35
e 32 36
e 32 37
e 32 38
e 32 40
e 32 41
e 32 42
e 32 43
e 32 44
e 32 45
e 32 46
e 32 48
e 32 49
e 32 51
e 32 52
e 32 53
e 32 56
e 32 62
e 32 70
e 32 75
e 32 78
e 32 79
e 32 89
e 32 99
e 33 34
e 33 35
e 33 36
e 33 37
e 33 38
e 33 39
e 33 40
e 33 42
e 33 43
e 33 44
e 33 46
e 33 47
e 33 48
e 33 49
e 33 50
e 33 52
e 33 56
e 33 64
e 33 71
e 33 76
e 33 92
e 34 35
e 34 36
e 34 37
e 34 38
e 34 40
e 34 43
e 34 45
e 34 46
e 34 47
e 34 49
e 34 50
e 34 51
e 34 54
e 34 63
e 34 65
e 34 67
e 34 85
e 34 93
e 34 95
e 34 98
e 35 38
e 35 39
e 35 41
e 35 42
e 35 43
e 35 49
e 35 52
e 35 53
e 35 56
e 35 60
e 35 62
e 35 64
e 35 67
e 35 68
e 35 73
e 35 74
e 35 81
e 35 83
e 35 86
e 35 90
e 35 95
e 36 37
e 36 38
e 36 39
e 36 40
e 36 41
e 36 42
e 36 45
e 36 46
e 36 49
e 36 50
e 36 53
e 36 57
e 36 60
e 36 65
e 36 66
e 36 67
e 36 69
e 36 74
e 36 78
e 36 82
e 36 84
e 36 85
e 36 86
e 36 87
e 36 94
e 36 97
e 36 98
e 37 38
e 37 39
e 37 41
e 37 42
e 37 43
e 37 44
e 37 45
e 37 46
e 37 47
e 37 48
e 37 49
e 37 51
e 37 52
e 37 53
e 37 54
e 37 68
e 37 72
e 37 85
e 37 90
e 37 92
e 37 94
e 37 97
e 38 39
e 38 40
e 38 41
e 38 42
e 38 43
e 38 44
e 38 45
e 38 46
e 38 48
e 38 52
e 38 55
e 38 56
e 38 70
e 38 76
e 38 78
e 38 90
e 38 91
e 38 94
e 38 95
e 38 100
e 39 40
e 39 43
e 39 48
e 39 49
e 39 50
e 39 51
e 39 52
e 39 53
e 39 59
e 39 67
e 39 71
e 39 83
e 39 92
e 39 98
e 39 100
e 40 41
e 40 42
e 40 43
e 40 44
e 40 45
e 40 47
e 40 48
e 40 49
e 40 51
e 40 52
e 40 53
e 40 57
e 40 62
e 40 66
e 40 68
e 40 69
e 40 77
e 40 79
e 40 93
e 40 97
e 41 42
e 41 43
e 41 44
e 41 45
e 41 51
e 41 52
e 41 78
e 41 83
e 41 90
e 41 92
e 41 93
e 42 44
e 42 45
e 42 46
e 42 48
e 42 49
e 42 52
e 42 57
e 42 62
e 42 86
e 42 91
e 42 96
e 42 97
e 42 99
e 42 100
e 43 44
e 43 47
e 43 48
e 43 49
e 43 51
e 43 52
e 43 59
e 43 64
e 43 68
e 43 78
e 43 81
e 43 86
e 43 89
e 43 90
e 43 93
e 43 99
e 44 45
e 44 46
e 44 47
e 44 48
e 44 49
e 44 50
e 44 52
e 44 57
e 44 63
e 44 67
e 44 72
e 44 74
e 44 83
e 45 46
e 45 47
e 45 49
e 45 50
e 45 51
e 45 52
e 45 54
e 45 55
e 45 65
e 45 66
e 45 67
e 45 71
e 45 81
e 45 87
e 45 97
e 46 47
e 46 49
e 46 51
e 46 52
e 46 53
e 46 67
e 46 69
e 46 74
e 46 75
e 46 81
e 46 90
e 46 97
e 47 49
e 47 50
e 47 51
e 47 52
e 47 57
e 47 66
e 47 67
e 47 72
e 47 73
e 47 77
e 47 80
e 47 91
e 47 92
e 47 97
e 47 98
e 48 50
e 48 51
e 48 53
e 48 63
e 48 64
e 48 68
e 48 70
e 48 71
e 48 74
e 48 81
e 48 88
e 48 93
e 49 52
e 49 53
e 49 61
e 49 62
e 49 71
e 49 74
e 49 77
e 49 85
e 49 87
e 49 92
e 49 94
e 50 52
e 50 53
e 50 55
e 50 59
e 50 60
e 50 61
e 50 62
e 50 64
e 50 65
e 50 68
e 50 70
e 50 73
e 50 77
e 50 80
e 50 82
e 50 83
e 50 97
e 50 98
e 50 99
e 50 100
e 51 52
e 51 59
e 51 76
e 51 83
e 51 87
e 51 91
e 51 92
e 51 96
e 52 53
e 52 55
e 52 56
e 52 65
e 52 67
e 52 69
e 52 71
e 52 72
e 52 80
e 52 98
e 53 63
e 53 74
e 53 88
e 53 89
e 53 98
e 53 99
e 54 55
e 54 57
e 54 58
e 54 59
e 54 64
e 54 65
e 54 66
e 54 67
e 54 71
e 54 75
e 54 76
e 54 77
e 54 78
e 54 80
e 54 81
e 54 82
e 54 83
e 54 84
e 54 85
e 54 86
e 54 87
e 54 88
e 54 89
e 54 90
e 54 92
e 54 93
e 54 95
e 54 97
e 54 99
e 54 100
e 55 56
e 55 57
e 55 58
e 55 59
e 55 60
e 55 63
e 55 64
e 55 65
e 55 66
e 55 67
e 55 69
e 55 70
e 55 71
e 55 73
e 55 74
e 55 75
e 55 77
e 55 78
e 55 79
e 55 80
e 55 81
e 55 84
e 55 85
e 55 86
e 55 87
e 55 89
e 55 90
e 55 92
e 55 93
e 55 96
e 55 98
e 55 99
e 56 57
e 56 58
e 56 59
e 56 60
e 56 61
e 56 62
e 56 63
e 56 66
e 56 68
e 56 69
e 56 70
e 56 71
e 56 72
e 56 73
e 56 74
e 56 75
e 56 76
e 56 77
e 56 78
e 56 79
e 56 80
e 56 82
e 56 83
e 56 84
e 56 86
e 56 87
e 56 89
e 56 90
e 56 91
e 56 94
e 56 95
e 56 96
e 56 97
e 56 98
e 57 58
e 57 62
e 57 63
e 57 64
e 57 65
e 57 66
e 57 67
e 57 68
e 57 69
e 57 70
e 57 72
e 57 73
e 57 74
e 57 76
e 57 77
e 57 78
e 57 80
e 57 81
e 57 85
e 57 87
e 57 88
e 57 89
e 57 92
e 57 95
e 57 96
e 57 97
e 57 98
e 58 59
e 58 60
e 58 61
e 58 63
e 58 64
e 58 66
e 58 67
e 58 68
e 58 69
e 58 70
e 58 71
e 58 72
e 58 73
e 58 74
e 58 76
e 58 79
e 58 80
e 58 81
e 58 83
e 58 84
e 58 85
e 58 86
e 58 87
e 58 88
e 58 89
e 58 90
e 58 92
e 58 93
e 58 94
e 58 95
e 58 96
e 58 98
e 58 99
e 58 100
e 59 60
e 59 61
e 59 62
e 59 64
e 59 65
e 59 66
e 59 68
e 59 69
e 59 70
e 59 71
e 59 72
e 59 73
e 59 75
e 59 78
e 59 79
e 59 81
e 59 82
e 59 84
e 59 85
e 59 86
e 59 87
e 59 88
e 59 89
e 59 91
e 59 92
e 59 94
e 59 95
e 59 96
e 59 97
e 59 98
e 59 99
e 59 100
e 60 61
e 60 62
e 60 63
e 60 65
e 60 66
e 60 67
e 60 68
e 60 69
e 60 71
e 60 72
e 60 73
e 60 74
e 60 76
e 60 77
e 60 78
e 60 80
e 60 81
e 60 82
e 60 83
e 60 84
e 60 85
e 60 86
e 60 87
e 60 88
e 60 89
e 60 90
e 60 91
e 60 93
e 60 95
e 60 98
e 60 99
e 60 100
e 61 63
e 61 65
e 61 67
e 61 68
e 61 69
e 61 70
e 61 72
e 61 73
e 61 75
e 61 76
e 61 78
e 61 79
e 61 80
e 61 81
e 61 82
e 61 83
e 61 84
e 61 85
e 61 86
e 61 87
e 61 88
e 61 90
e 61 91
e 61 93
e 61 94
e 61 95
e 61 98
e 61 99
e 61 100
e 62 64
e 62 66
e 62 67
e 62 70
e 62 75
e 62 76
e 62 80
e 62 81
e 62 82
e 62 83
e 62 85
e 62 86
e 62 89
e 62 90
e 62 91
e 62 93
e 62 94
e 62 98
e 62 99
e 63 64
e 63 65
e 63 68
e 63 70
e 63 72
e 63 76
e 63 78
e 63 79
e 63 81
e 63 83
e 63 84
e 63 86
e 63 87
e 63 88
e 63 89
e 63 90
e 63 91
e 63 92
e 63 94
e 63 95
e 63 96
e 63 97
e 63 100
e 64 65
e 64 66
e 64 67
e 64 68
e 64 71
e 64 72
e 64 73
e 64 75
e 64 76
e 64 77
e 64 79
e 64 80
e 64 81
e 64 84
e 64 85
e 64 86
e 64 87
e 64 88
e 64 89
e 64 90
e 64 91
e 64 92
e 64 95
e 64 96
e 64 99
e 64 100
e 65 68
e 65 69
e 65 70
e 65 71
e 65 72
e 65 73
e 65 75
e 65 76
e 65 77
e 65 78
e 65 79
e 65 80
e 65 84
e 65 86
e 65 87
e 65 88
e 65 90
e 65 93
e 65 94
e 65 96
e 65 97
e 65 98
e 66 68
e 66 69
e 66 70
e 66 71
e 66 75
e 66 77
e 66 79
e 66 82
e 66 83
e 66 84
e 66 85
e 66 86
e 66 87
e 66 89
e 66 90
e 66 91
e 66 92
e 66 93
e 66 94
e 66 95
e 66 96
e 66 97
e 66 98
e 66 99
e 66 100
e 67 68
e 67 70
e 67 71
e 67 74
e 67 75
e 67 76
e 67 77
e 67 78
e 67 79
e 67 80
e 67 81
e 67 83
e 67 84
e 67 85
e 67 86
e 67 87
e 67 88
e 67 89
e 67 91
e 67 93
e 67 94
e 67 96
e 67 97
e 67 98
e 68 69
e 68 70
e 68 71
e 68 72
e 68 73
e 68 74
e 68 76
e 68 77
e 68 78
e 68 79
e 68 81
e 68 82
e 68 84
e 68 85
e 68 86
e 68 87
e 68 89
e 68 90
e 68 91
e 68 92
e 68 93
e 68 94
e 68 95
e 68 96
e 68 97
e 68 98
e 68 100
e 69 70
e 69 71
e 69 72
e 69 73
e 69 74
e 69 76
e 69 77
e 69 78
e 69 79
e 69 80
e 69 81
e 69 82
e 69 83
e 69 88
e 69 89
e 69 90
e 69 91
e 69 92
e 69 93
e 69 94
e 69 95
e 69 96
e 69 97
e 69 98
e 69 99
e 70 73
e 70 74
e 70 76
e 70 77
e 70 78
e 70 79
e 70 80
e 70 81
e 70 82
e 70 83
e 70 85
e 70 86
e 70 87
e 70 89
e 70 90
e 70 93
e 70 94
e 70 96
e 70 97
e 70 99
e 70 100
e 71 72
e 71 73
e 71 75
e 71 76
e 71 77
e 71 78
e 71 79
e 71 80
e 71 81
e 71 82
e 71 83
e 71 86
e 71 87
e 71 88
e 71 90
e 71 91
e 71 92
e 71 97
e 71 99
e 71 100
e 72 73
e 72 74
e 72 75
e 72 76
e 72 77
e 72 79
e 72 80
e 72 81
e 72 83
e 72 84
e 72 85
e 72 86
e 72 89
e 72 91
e 72 92
e 72 93
e 72 94
e 72 95
e 72 96
e 72 98
e 72 99
e 72 100
e 73 74
e 73 75
e 73 76
e 73 78
e 73 79
e 73 80
e 73 82
e 73 83
e 73 84
e 73 85
e 73 86
e 73 87
e 73 88
e 73 91
e 73 92
e 73 93
e 73 94
e 73 95
e 73 96
e 73 97
e 73 100
e 74 75
e 74 76
e 74 78
e 74 79
e 74 80
e 74 81
e 74 82
e 74 85
e 74 86
e 74 87
e 74 88
e 74 89
e 74 91
e 74 92
e 74 93
e 74 95
e 74 96
e 75 76
e 75 77
e 75 78
e 75 79
e 75 80
e 75 82
e 75 83
e 75 85
e 75 86
e 75 87
e 75 89
e 75 90
e 75 91
e 75 93
e 75 94
e 75 95
e 75 96
e 75 97
e 75 98
e 75 99
e 76 77
e 76 78
e 76 80
e 76 81
e 76 82
e 76 83
e 76 84
e 76 85
e 76 87
e 76 88
e 76 89
e 76 91
e 76 92
e 76 93
e 76 94
e 76 95
e 76 96
e 76 98
e 76 99
e 76 100
e 77 78
e 77 79
e 77 80
e 77 81
e 77 82
e 77 83
e 77 86
e 77 87
e 77 89
e 77 91
e 77 93
e 77 94
e 77 95
e 77 97
e 77 98
e 77 99
e 78 79
e 78 82
e 78 83
e 78 85
e 78 86
e 78 87
e 78 89
e 78 90
e 78 91
e 78 92
e 78 93
e 78 94
e 78 96
e 78 97
e 78 98
e 78 100
e 79 81
e 79 86
e 79 87
e 79 88
e 79 90
e 79 91
e 79 92
e 79 93
e 79 94
e 79 95
e 79 96
e 79 97
e 79 100
e 80 81
e 80 85
e 80 86
e 80 88
e 80 90
e 80 94
e 80 96
e 80 99
e 80 100
e 81 82
e 81 83
e 81 84
e 81 85
e 81 86
e 81 88
e 81 89
e 81 90
e 81 91
e 81 92
e 81 93
e 81 94
e 81 96
e 81 97
e 81 98
e 82 83
e 82 84
e 82 85
e 82 86
e 82 87
e 82 90
e 82 91
e 82 92
e 82 93
e 82 94
e 82 95
e 82 96
e 82 97
e 82 99
e 82 100
e 83 84
e 83 85
e 83 87
e 83 90
e 83 91
e 83 92
e 83 94
e 83 96
e 83 100
e 84 86
e 84 87
e 84 88
e 84 89
e 84 90
e 84 91
e 84 92
e 84 95
e 84 97
e 84 98
e 84 99
e 85 86
e 85 87
e 85 88
e 85 89
e 85 90
e 85 91
e 85 92
e 85 93
e 85 94
e 85 97
e 85 98
e 86 87
e 86 89
e 86 91
e 86 92
e 86 94
e 86 96
e 86 97
e 86 99
e 86 100
e 87 88
e 87 90
e 87 91
e 87 93
e 87 95
e 87 96
e 87 98
e 87 99
e 87 100
e 88 89
e 88 90
e 88 91
e 88 92
e 88 93
e 88 95
e 88 97
e 88 99
e 88 100
e 89 90
e 89 93
e 89 94
e 89 97
e 89 98
e 89 99
e 90 91
e 90 93
e 90 94
e 90 96
e 90 97
e 90 98
e 90 99
e 91 94
e 91 96
e 91 99
e 92 93
e 92 94
e 92 95
e 92 96
e 92 97
e 92 98
e 92 99
e 93 94
e 93 95
e 93 96
e 93 97
e 93 98
e 93 99
e 93 100
e 94 96
e 94 98
e 94 99
e 95 96
e 95 97
e 95 98
e 95 100
e 96 97
e 96 98
e 96 99
e 96 100
e 97 99
e 97 100
e 98 99
e 99 100
