MATILDA_Graphs/g0047.sol
SET_INDEX
269
517
2802
3647
3755
5751
7923
8656
11810
14906
15315
17239
19299
24621
26153
EOF
